
  32    4
  10   10   10   10

   0   0   0   0   0   2 2 3 
  10   1   0   1   1   1 4 
   6   0   1   4   5   1 4 
   7   3   7   0   4   1 5 
   9   6   4   0   5   1 6 
   8   0   6   3   2   1 7 
   1   8   0   3   2   1 8 
   2   5   4   0   6   1 9 
   1   4   4   0   6   1 10 
   7   2   4   0   5   1 11 
   4   5   0   5   2   1 12 
   4   0   5   2   4   1 13 
   6   5   0   5   2   2 17 14 
   3   4   3   0   4   1 15 
   6   3   5   0   4   1 16 
   8   7   2   5   0   1 18 
  10   5   4   0   3   1 18 
   2   2   6   5   0   2 22 19 
   1   0   4   2   3   2 21 20 
   5   5   0   2   5   1 23 
   5   2   0   4   3   1 23 
  10   0   3   3   6   1 23 
   5   0   3   4   4   1 24 
   7   7   0   5   5   1 25 
   1   2   4   6   0   1 26 
  10   2   0   4   5   1 27 
   3   1   4   5   0   3 31 29 28 
   3   3   7   0   3   1 30 
   9   0   4   7   4   1 30 
   3   0   3   5   7   1 32
   7   6   1   4   0   1 32
   0   0   0   0   0   0 
